QBPP_HJ*_40_025_10_5
40 235 2
38 35 50 41 28 35 30 14 45 7 16 22 18 34 6 47 25 8 23 43 5 46 31 13 15 33 41 36 33 30 46 44 38 14 49 12 50 26 39 6
    0  -26    0    0    0    0   35    0    0    0    0    0    0    0   -7    0    0    0    0    0    0    0    0    0    0   35   47    0    0    0    0    0    0    0    0    0    0    0   43  -25
  -26    0    0    0    0    0  -12    0    0    0    0    0    0    0    0    0   28    0    0    0    0    0    0    0    0    0    0    0  -42    0    0    0   -3    0   18    0   -5    0    0    0
    0    0    0    0  -44    9   16    0   50    0    0    0  -48    0    0   21  -48    0    0    0    0  -17    0    0    0  -36    0    0   -7    0  -11    0    0   26  -23  -20    0    0    0    0
    0    0    0    0    0  -36  -13  -48    0    0    0    0   -6   -8    0    0    0   37   -1    0    0    0    0    0    0   29    0    0    0   45    0    0    0    0    0    0    0   26    0   -1
    0    0  -44    0    0    0   10    0   32    0   28    0    0    0    0    0    0   29    0    0    6    0   24    0    0   33    3    0    0  -23  -48    0    0    0  -11    0    0    0    0    0
    0    0    9  -36    0    0   14   -7    0    0    0    0    0    0   -8  -44    0    0    0    0    0    0    0    0    0    0    0    0    0    0  -24   22  -13    0    0    0    0    0    0    0
   35  -12   16  -13   10   14    0    0    0    0    0   16    0    0    9    0    0    0   -7    0  -11    0    0    0  -35   38    0    0  -16    0   45  -14   44   30    0    7    0  -41    0   40
    0    0    0  -48    0   -7    0    0    0   -1    0  -33    0    0  -40    0    0    0    0    0   19    0    0  -11    0    0  -50    0    0    0    0    0    0    0    0   38    0    0    0    0
    0    0   50    0   32    0    0    0    0   38    1    1    0  -37    0    0    6    0    0   41  -23    0    3  -37    0    0    0    0    0    0   36   -6    0    0    0    0   14    0  -18  -16
    0    0    0    0    0    0    0   -1   38    0    0    6    0    0    0  -32    0    0    0    0    0    0    0  -48    0    0    0    0    0    0    0    0    0    0    0    0    0    0    0    0
    0    0    0    0   28    0    0    0    1    0    0    0    0    0    0    0    0    0  -31    0   47   -4    0   36    0    0  -20    0    0    0    0    0   39  -14    0    0    0    0    0    0
    0    0    0    0    0    0   16  -33    1    6    0    0  -34    0    5    0    0    0    0    0   13    0   15    0    0    0    0   14    0    0   40    0    0    0    0    0    0   28    0    0
    0    0  -48   -6    0    0    0    0    0    0    0  -34    0   -4    0    0    0    0    0    0    0    0    0    0    0    0    0    0    0    0    0    0   20    0   41    0    0   44    0    0
    0    0    0   -8    0    0    0    0  -37    0    0    0   -4    0    0   -7  -42    0    0   45   39    0   29    0    0    0    0   39    0    0    0    0    0    0   13    0  -35    0    0    0
   -7    0    0    0    0   -8    9  -40    0    0    0    5    0    0    0    0    0   20    0    8    0  -42    0  -45    0    0   26    0   -3    0   20    0    0    0    0    0    0    0    0    0
    0    0   21    0    0  -44    0    0    0  -32    0    0    0   -7    0    0    0    0    0    0   18    0    0    0    0    0    0    0    0   17  -40    0  -38  -32    0    0  -12    0    0    0
    0   28  -48    0    0    0    0    0    6    0    0    0    0  -42    0    0    0    0    0  -16    0    0    0    0    0    0    0   43    0    0    0    0    0  -49   35    0  -34    0    0    0
    0    0    0   37   29    0    0    0    0    0    0    0    0    0   20    0    0    0    0    0    0    0   -8   37    0    0    0    0    0    0    0  -45   -1    0  -30    0    0    0    0    0
    0    0    0   -1    0    0   -7    0    0    0  -31    0    0    0    0    0    0    0    0  -14    1    0    0  -25    0    0   21    0    0    0  -50  -17    0    0    0    0    0    0    0    0
    0    0    0    0    0    0    0    0   41    0    0    0    0   45    8    0  -16    0  -14    0    0    0    0  -26    0    0    0    0    0   -1    0    0   11    0    0    0    0    0    0    0
    0    0    0    0    6    0  -11   19  -23    0   47   13    0   39    0   18    0    0    1    0    0  -45    0    0    0    0    8    0  -50    0    0    0    0    0    0    5    0    0    0    0
    0    0  -17    0    0    0    0    0    0    0   -4    0    0    0  -42    0    0    0    0    0  -45    0    0    0  -43    0   27    0    0    0    0  -46    0    0    0    0    0    0    0    0
    0    0    0    0   24    0    0    0    3    0    0   15    0   29    0    0    0   -8    0    0    0    0    0    0    0    0    0    0    0    0    0    0    0    0    0    0    0    0   17    0
    0    0    0    0    0    0    0  -11  -37  -48   36    0    0    0  -45    0    0   37  -25  -26    0    0    0    0    0    0  -17    0    0    0   43    0    0    0    0   27    0    0    0   -4
    0    0    0    0    0    0  -35    0    0    0    0    0    0    0    0    0    0    0    0    0    0  -43    0    0    0  -47    0    0    7    0    0   29  -36   -8    0    0   24   50    0  -25
   35    0  -36   29   33    0   38    0    0    0    0    0    0    0    0    0    0    0    0    0    0    0    0    0  -47    0    0    0    0    0    0    0    0    0  -27    0    0  -19    0    0
   47    0    0    0    3    0    0  -50    0    0  -20    0    0    0   26    0    0    0   21    0    8   27    0  -17    0    0    0    0    0  -29    0   49  -49    0  -45    0   -1    0   40    0
    0    0    0    0    0    0    0    0    0    0    0   14    0   39    0    0   43    0    0    0    0    0    0    0    0    0    0    0    0    0    0    0    0    0    0    0    0    0    0    0
    0  -42   -7    0    0    0  -16    0    0    0    0    0    0    0   -3    0    0    0    0    0  -50    0    0    0    7    0    0    0    0    0    0    0  -34    0   17   46    0    0   49    0
    0    0    0   45  -23    0    0    0    0    0    0    0    0    0    0   17    0    0    0   -1    0    0    0    0    0    0  -29    0    0    0    0    0    0    0    0    0    0    0    0   40
    0    0  -11    0  -48  -24   45    0   36    0    0   40    0    0   20  -40    0    0  -50    0    0    0    0   43    0    0    0    0    0    0    0    0    0   43    0  -22    0    0    0    0
    0    0    0    0    0   22  -14    0   -6    0    0    0    0    0    0    0    0  -45  -17    0    0  -46    0    0   29    0   49    0    0    0    0    0    6    0    0    0  -18  -22   49    0
    0   -3    0    0    0  -13   44    0    0    0   39    0   20    0    0  -38    0   -1    0   11    0    0    0    0  -36    0  -49    0  -34    0    0    6    0    0    0    0   34    0    0    9
    0    0   26    0    0    0   30    0    0    0  -14    0    0    0    0  -32  -49    0    0    0    0    0    0    0   -8    0    0    0    0    0   43    0    0    0  -46    0    0    0    0    0
    0   18  -23    0  -11    0    0    0    0    0    0    0   41   13    0    0   35  -30    0    0    0    0    0    0    0  -27  -45    0   17    0    0    0    0  -46    0    0    0    0    0    0
    0    0  -20    0    0    0    7   38    0    0    0    0    0    0    0    0    0    0    0    0    5    0    0   27    0    0    0    0   46    0  -22    0    0    0    0    0    0  -19    0    0
    0   -5    0    0    0    0    0    0   14    0    0    0    0  -35    0  -12  -34    0    0    0    0    0    0    0   24    0   -1    0    0    0    0  -18   34    0    0    0    0    0  -32    0
    0    0    0   26    0    0  -41    0    0    0    0   28   44    0    0    0    0    0    0    0    0    0    0    0   50  -19    0    0    0    0    0  -22    0    0    0  -19    0    0    6    0
   43    0    0    0    0    0    0    0  -18    0    0    0    0    0    0    0    0    0    0    0    0    0   17    0    0    0   40    0   49    0    0   49    0    0    0    0  -32    6    0    0
  -25    0    0   -1    0    0   40    0  -16    0    0    0    0    0    0    0    0    0    0    0    0    0    0   -4  -25    0    0    0    0   40    0    0    9    0    0    0    0    0    0    0
